c nIsolatedPIs 0
c maxPI 32
p cnf 201 508
c gate 33 2 18 0
2 -33 0
18 -33 0
-2 -18 33 0
c gate 34 -2 -18 0
-2 -34 0
-18 -34 0
2 18 34 0
c gate 35 1 17 0
1 -35 0
17 -35 0
-1 -17 35 0
c gate 36 -34 35 0
-34 -36 0
35 -36 0
34 -35 36 0
c gate 37 -33 -36 0
-33 -37 0
-36 -37 0
33 36 37 0
c gate 38 3 19 0
3 -38 0
19 -38 0
-3 -19 38 0
c gate 39 -3 -19 0
-3 -39 0
-19 -39 0
3 19 39 0
c gate 40 -38 -39 0
-38 -40 0
-39 -40 0
38 39 40 0
c gate 41 -37 -40 0
-37 -41 0
-40 -41 0
37 40 41 0
c gate 42 -18 -37 0
-18 -42 0
-37 -42 0
18 37 42 0
c gate 43 -41 -42 0
-41 -43 0
-42 -43 0
41 42 43 0
c gate 44 -33 36 0
-33 -44 0
36 -44 0
33 -36 44 0
c gate 45 15 31 0
15 -45 0
31 -45 0
-15 -31 45 0
c gate 46 -15 -31 0
-15 -46 0
-31 -46 0
15 31 46 0
c gate 47 -14 -30 0
-14 -47 0
-30 -47 0
14 30 47 0
c gate 48 -46 -47 0
-46 -48 0
-47 -48 0
46 47 48 0
c gate 49 14 30 0
14 -49 0
30 -49 0
-14 -30 49 0
c gate 50 13 29 0
13 -50 0
29 -50 0
-13 -29 50 0
c gate 51 -49 -50 0
-49 -51 0
-50 -51 0
49 50 51 0
c gate 52 -11 -27 0
-11 -52 0
-27 -52 0
11 27 52 0
c gate 53 -10 -26 0
-10 -53 0
-26 -53 0
10 26 53 0
c gate 54 -52 -53 0
-52 -54 0
-53 -54 0
52 53 54 0
c gate 55 9 25 0
9 -55 0
25 -55 0
-9 -25 55 0
c gate 56 10 26 0
10 -56 0
26 -56 0
-10 -26 56 0
c gate 57 -55 -56 0
-55 -57 0
-56 -57 0
55 56 57 0
c gate 58 -8 -24 0
-8 -58 0
-24 -58 0
8 24 58 0
c gate 59 -9 -25 0
-9 -59 0
-25 -59 0
9 25 59 0
c gate 60 -58 -59 0
-58 -60 0
-59 -60 0
58 59 60 0
c gate 61 8 24 0
8 -61 0
24 -61 0
-8 -24 61 0
c gate 62 -58 -61 0
-58 -62 0
-61 -62 0
58 61 62 0
c gate 63 7 23 0
7 -63 0
23 -63 0
-7 -23 63 0
c gate 64 -7 -23 0
-7 -64 0
-23 -64 0
7 23 64 0
c gate 65 -6 -22 0
-6 -65 0
-22 -65 0
6 22 65 0
c gate 66 6 22 0
6 -66 0
22 -66 0
-6 -22 66 0
c gate 67 -65 -66 0
-65 -67 0
-66 -67 0
65 66 67 0
c gate 68 -5 -21 0
-5 -68 0
-21 -68 0
5 21 68 0
c gate 69 -4 -20 0
-4 -69 0
-20 -69 0
4 20 69 0
c gate 70 4 20 0
4 -70 0
20 -70 0
-4 -20 70 0
c gate 71 -69 -70 0
-69 -71 0
-70 -71 0
69 70 71 0
c gate 72 -37 -39 0
-37 -72 0
-39 -72 0
37 39 72 0
c gate 73 -38 -72 0
-38 -73 0
-72 -73 0
38 72 73 0
c gate 74 71 73 0
71 -74 0
73 -74 0
-71 -73 74 0
c gate 75 -69 -74 0
-69 -75 0
-74 -75 0
69 74 75 0
c gate 76 5 21 0
5 -76 0
21 -76 0
-5 -21 76 0
c gate 77 -68 -76 0
-68 -77 0
-76 -77 0
68 76 77 0
c gate 78 -75 77 0
-75 -78 0
77 -78 0
75 -77 78 0
c gate 79 -68 -78 0
-68 -79 0
-78 -79 0
68 78 79 0
c gate 80 67 -79 0
67 -80 0
-79 -80 0
-67 79 80 0
c gate 81 -65 -80 0
-65 -81 0
-80 -81 0
65 80 81 0
c gate 82 -64 81 0
-64 -82 0
81 -82 0
64 -81 82 0
c gate 83 -63 -82 0
-63 -83 0
-82 -83 0
63 82 83 0
c gate 84 62 83 0
62 -84 0
83 -84 0
-62 -83 84 0
c gate 85 60 -84 0
60 -85 0
-84 -85 0
-60 84 85 0
c gate 86 57 -85 0
57 -86 0
-85 -86 0
-57 85 86 0
c gate 87 54 -86 0
54 -87 0
-86 -87 0
-54 86 87 0
c gate 88 11 27 0
11 -88 0
27 -88 0
-11 -27 88 0
c gate 89 12 28 0
12 -89 0
28 -89 0
-12 -28 89 0
c gate 90 -88 -89 0
-88 -90 0
-89 -90 0
88 89 90 0
c gate 91 -87 90 0
-87 -91 0
90 -91 0
87 -90 91 0
c gate 92 -13 -29 0
-13 -92 0
-29 -92 0
13 29 92 0
c gate 93 -12 -28 0
-12 -93 0
-28 -93 0
12 28 93 0
c gate 94 -92 -93 0
-92 -94 0
-93 -94 0
92 93 94 0
c gate 95 -91 94 0
-91 -95 0
94 -95 0
91 -94 95 0
c gate 96 51 -95 0
51 -96 0
-95 -96 0
-51 95 96 0
c gate 97 48 -96 0
48 -97 0
-96 -97 0
-48 96 97 0
c gate 98 -45 -97 0
-45 -98 0
-97 -98 0
45 97 98 0
c gate 99 -16 -32 0
-16 -99 0
-32 -99 0
16 32 99 0
c gate 100 16 32 0
16 -100 0
32 -100 0
-16 -32 100 0
c gate 101 -99 -100 0
-99 -101 0
-100 -101 0
99 100 101 0
c gate 102 98 -101 0
98 -102 0
-101 -102 0
-98 101 102 0
c gate 103 -98 101 0
-98 -103 0
101 -103 0
98 -101 103 0
c gate 104 -102 -103 0
-102 -104 0
-103 -104 0
102 103 104 0
c gate 105 54 -88 0
54 -105 0
-88 -105 0
-54 88 105 0
c gate 106 -63 -64 0
-63 -106 0
-64 -106 0
63 64 106 0
c gate 107 18 -37 0
18 -107 0
-37 -107 0
-18 37 107 0
c gate 108 -38 -107 0
-38 -108 0
-107 -108 0
38 107 108 0
c gate 109 71 -108 0
71 -109 0
-108 -109 0
-71 108 109 0
c gate 110 -70 -109 0
-70 -110 0
-109 -110 0
70 109 110 0
c gate 111 -68 -110 0
-68 -111 0
-110 -111 0
68 110 111 0
c gate 112 -76 -111 0
-76 -112 0
-111 -112 0
76 111 112 0
c gate 113 67 -112 0
67 -113 0
-112 -113 0
-67 112 113 0
c gate 114 -66 -113 0
-66 -114 0
-113 -114 0
66 113 114 0
c gate 115 106 -114 0
106 -115 0
-114 -115 0
-106 114 115 0
c gate 116 -63 -115 0
-63 -116 0
-115 -116 0
63 115 116 0
c gate 117 -61 116 0
-61 -117 0
116 -117 0
61 -116 117 0
c gate 118 60 -117 0
60 -118 0
-117 -118 0
-60 117 118 0
c gate 119 57 -118 0
57 -119 0
-118 -119 0
-57 118 119 0
c gate 120 105 -119 0
105 -120 0
-119 -120 0
-105 119 120 0
c gate 121 90 -120 0
90 -121 0
-120 -121 0
-90 120 121 0
c gate 122 94 -121 0
94 -122 0
-121 -122 0
-94 121 122 0
c gate 123 51 -122 0
51 -123 0
-122 -123 0
-51 122 123 0
c gate 124 -47 -123 0
-47 -124 0
-123 -124 0
47 123 124 0
c gate 125 -45 -124 0
-45 -125 0
-124 -125 0
45 124 125 0
c gate 126 -46 -125 0
-46 -126 0
-125 -126 0
46 125 126 0
c gate 127 -101 126 0
-101 -127 0
126 -127 0
101 -126 127 0
c gate 128 101 -126 0
101 -128 0
-126 -128 0
-101 126 128 0
c gate 129 -127 -128 0
-127 -129 0
-128 -129 0
127 128 129 0
c gate 130 -104 -129 0
-104 -130 0
-129 -130 0
104 129 130 0
c gate 131 -45 -92 0
-45 -131 0
-92 -131 0
45 92 131 0
c gate 132 48 131 0
48 -132 0
131 -132 0
-48 -131 132 0
c gate 133 51 132 0
51 -133 0
132 -133 0
-51 -132 133 0
c gate 134 120 -133 0
120 -134 0
-133 -134 0
-120 133 134 0
c gate 135 -89 -93 0
-89 -135 0
-93 -135 0
89 93 135 0
c gate 136 -88 135 0
-88 -136 0
135 -136 0
88 -135 136 0
c gate 137 -134 136 0
-134 -137 0
136 -137 0
134 -136 137 0
c gate 138 87 133 0
87 -138 0
133 -138 0
-87 -133 138 0
c gate 139 -87 -120 0
-87 -139 0
-120 -139 0
87 120 139 0
c gate 140 -138 -139 0
-138 -140 0
-139 -140 0
138 139 140 0
c gate 141 137 140 0
137 -141 0
140 -141 0
-137 -140 141 0
c gate 142 -130 141 0
-130 -142 0
141 -142 0
130 -141 142 0
c gate 143 104 129 0
104 -143 0
129 -143 0
-104 -129 143 0
c gate 144 -62 -83 0
-62 -144 0
-83 -144 0
62 83 144 0
c gate 145 -84 -144 0
-84 -145 0
-144 -145 0
84 144 145 0
c gate 146 62 -116 0
62 -146 0
-116 -146 0
-62 116 146 0
c gate 147 -62 116 0
-62 -147 0
116 -147 0
62 -116 147 0
c gate 148 -146 -147 0
-146 -148 0
-147 -148 0
146 147 148 0
c gate 149 145 148 0
145 -149 0
148 -149 0
-145 -148 149 0
c gate 150 -145 -148 0
-145 -150 0
-148 -150 0
145 148 150 0
c gate 151 -149 -150 0
-149 -151 0
-150 -151 0
149 150 151 0
c gate 152 62 -151 0
62 -152 0
-151 -152 0
-62 151 152 0
c gate 153 57 -59 0
57 -153 0
-59 -153 0
-57 59 153 0
c gate 154 105 153 0
105 -154 0
153 -154 0
-105 -153 154 0
c gate 155 82 -154 0
82 -155 0
-154 -155 0
-82 154 155 0
c gate 156 -115 -135 0
-115 -156 0
-135 -156 0
115 135 156 0
c gate 157 -155 -156 0
-155 -157 0
-156 -157 0
155 156 157 0
c gate 158 152 157 0
152 -158 0
157 -158 0
-152 -157 158 0
c gate 159 -143 158 0
-143 -159 0
158 -159 0
143 -158 159 0
c gate 160 -142 159 0
-142 -160 0
159 -160 0
142 -159 160 0
c gate 161 -106 114 0
-106 -161 0
114 -161 0
106 -114 161 0
c gate 162 -115 -161 0
-115 -162 0
-161 -162 0
115 161 162 0
c gate 163 -81 106 0
-81 -163 0
106 -163 0
81 -106 163 0
c gate 164 81 -106 0
81 -164 0
-106 -164 0
-81 106 164 0
c gate 165 -163 -164 0
-163 -165 0
-164 -165 0
163 164 165 0
c gate 166 162 165 0
162 -166 0
165 -166 0
-162 -165 166 0
c gate 167 -162 -165 0
-162 -167 0
-165 -167 0
162 165 167 0
c gate 168 -67 112 0
-67 -168 0
112 -168 0
67 -112 168 0
c gate 169 -113 -168 0
-113 -169 0
-168 -169 0
113 168 169 0
c gate 170 -67 79 0
-67 -170 0
79 -170 0
67 -79 170 0
c gate 171 -80 -170 0
-80 -171 0
-170 -171 0
80 170 171 0
c gate 172 -169 -171 0
-169 -172 0
-171 -172 0
169 171 172 0
c gate 173 169 171 0
169 -173 0
171 -173 0
-169 -171 173 0
c gate 174 78 -110 0
78 -174 0
-110 -174 0
-78 110 174 0
c gate 175 -77 110 0
-77 -175 0
110 -175 0
77 -110 175 0
c gate 176 75 175 0
75 -176 0
175 -176 0
-75 -175 176 0
c gate 177 -174 -176 0
-174 -177 0
-176 -177 0
174 176 177 0
c gate 178 -173 -177 0
-173 -178 0
-177 -178 0
173 177 178 0
c gate 179 -172 -178 0
-172 -179 0
-178 -179 0
172 178 179 0
c gate 180 -167 179 0
-167 -180 0
179 -180 0
167 -179 180 0
c gate 181 -71 -73 0
-71 -181 0
-73 -181 0
71 73 181 0
c gate 182 -74 -181 0
-74 -182 0
-181 -182 0
74 181 182 0
c gate 183 -71 108 0
-71 -183 0
108 -183 0
71 -108 183 0
c gate 184 -109 -183 0
-109 -184 0
-183 -184 0
109 183 184 0
c gate 185 182 184 0
182 -185 0
184 -185 0
-182 -184 185 0
c gate 186 -182 -184 0
-182 -186 0
-184 -186 0
182 184 186 0
c gate 187 -185 -186 0
-185 -187 0
-186 -187 0
185 186 187 0
c gate 188 71 -187 0
71 -188 0
-187 -188 0
-71 187 188 0
c gate 189 40 44 0
40 -189 0
44 -189 0
-40 -44 189 0
c gate 190 -185 -189 0
-185 -190 0
-189 -190 0
185 189 190 0
c gate 191 -186 -190 0
-186 -191 0
-190 -191 0
186 190 191 0
c gate 192 -188 -191 0
-188 -192 0
-191 -192 0
188 191 192 0
c gate 193 -43 192 0
-43 -193 0
192 -193 0
43 -192 193 0
c gate 194 180 -193 0
180 -194 0
-193 -194 0
-180 193 194 0
c gate 195 -166 -194 0
-166 -195 0
-194 -195 0
166 194 195 0
c gate 196 -149 195 0
-149 -196 0
195 -196 0
149 -195 196 0
c gate 197 -150 -152 0
-150 -197 0
-152 -197 0
150 152 197 0
c gate 198 -196 197 0
-196 -198 0
197 -198 0
196 -197 198 0
c gate 199 -160 -198 0
-160 -199 0
-198 -199 0
160 198 199 0
c gate 200 44 199 0
44 -200 0
199 -200 0
-44 -199 200 0
c gate 201 -43 -200 0
-43 -201 0
-200 -201 0
43 200 201 0
c PO
201 0
